lbl,CUST NO.,READY TIME,XCOORD.,YCOORD.,DEMAND,DUE DATE,SERVICE TIME
10,21,72,109,131,20,107,90
10,23,148,115,134,30,190,90
10,182,198,119,139,20,334,90
10,75,317,119,136,30,400,90
10,163,329,120,136,10,571,90
10,194,475,121,134,20,608,90
10,145,529,122,131,20,741,90
10,195,715,119,130,20,742,90
10,52,720,118,131,20,918,90
10,92,829,116,132,10,994,90
